
  32    4
  10   10   10   10

   0   0   0   0   0  22 2 3 5 6 7 8 9 17 18 19 20 21 22 23 24 25 26 27 28 29 30 31 
   2  10  10  10  10   2 11 4 
  10  10  10  10  10   2 16 15 
   1  10  10  10  10   1 12 
   2  10  10  10  10   1 11 
   1  10  10  10  10   1 14 
   7  10  10  10  10   1 13 
   3  10  10  10  10   1 10 
  10  10  10  10  10   1 10 
   3  10  10  10  10   1 32
   3  10  10  10  10   1 32
   9  10  10  10  10   1 32
   8  10  10  10  10   1 32
  10  10  10  10  10   1 32
   8  10  10  10  10   1 32
   9  10  10  10  10   1 32
   6  10  10  10  10   1 32
   5  10  10  10  10   1 32
   6  10  10  10  10   1 32
   7  10  10  10  10   1 32
  10  10  10  10  10   1 32
   4  10  10  10  10   1 32
   8  10  10  10  10   1 32
   8  10  10  10  10   1 32
   8  10  10  10  10   1 32
   1  10  10  10  10   1 32
   7  10  10  10  10   1 32
   9  10  10  10  10   1 32
   4  10  10  10  10   1 32
   6  10  10  10  10   1 32
   9  10  10  10  10   1 32
   0   0   0   0   0   0 
